s td 83 36 122
b 1 4 74 89
b 2 7 10 27
b 3 8 9 91
b 4 17 20 60
b 5 23 35 86
b 6 24 57 104
b 7 41 79 111
b 8 32 45 121
b 9 27 47 122
b 10 50 104 108
b 11 27 53 83
b 12 2 54 88
b 13 55 85 117
b 14 27 56 98
b 15 58 69 92
b 16 35 36 61
b 17 64 104 113
b 18 65 82 91
b 19 20 70 89
b 20 20 60 89
b 21 2 38 71
b 22 51 76 111
b 23 35 94 119
b 24 27 81 96
b 25 27 81 109
b 26 91 99 107
b 27 3 92 115
b 28 73 104 116
b 29 32 120 121
b 30 3 67 92
b 31 9 88 91
b 32 2 38 68
b 33 12 14 30 44
b 34 57 104 119
b 35 14 73 104
b 36 12 14 30 104
b 37 82 91 108
b 38 27 83 89 106
b 39 42 85 117
b 40 28 35 86
b 41 2 88 91
b 42 27 89 97 106
b 43 35 104 119
b 44 27 46 122
b 45 10 27 51 114
b 46 25 40 49 52
b 47 26 28 35 59
b 48 33 52 108 118
b 49 2 36 42 117
b 50 1 2 5 6 11 12 13 16 19 21 22 27 29 30 31 32 34 35 37 39 49 60 62 77 84 89 90 92 101 102 103 104 105 109 111 117
b 51 1 2 6 11 12 13 16 19 21 22 27 29 30 31 32 34 35 37 39 49 60 62 77 84 89 90 92 93 101 102 103 104 105 109 111 117
b 52 1 2 6 12 13 16 19 21 22 27 29 30 31 32 34 35 37 39 49 60 62 77 84 89 90 92 93 101 102 103 104 105 109 111 117 120
b 53 1 2 6 12 13 16 19 21 22 27 29 30 31 32 34 35 37 39 49 60 62 63 84 89 90 92 93 101 102 103 104 105 109 111 117 120
b 54 1 2 6 12 13 16 19 21 22 27 30 31 32 34 35 37 39 49 60 62 63 84 89 90 92 93 101 102 103 104 105 109 111 117 118 120
b 55 2 6 12 15 19 27 32 35 37 49 63 101 102 103 105 109 111 117 118 120
b 56 1 2 12 13 16 19 21 22 27 30 31 32 34 35 37 39 48 49 60 62 63 84 89 90 92 93 102 103 104 105 109 111 117 118 120
b 57 1 2 12 16 19 21 27 30 31 32 34 35 37 39 48 49 59 60 84 89 90 92 93 103 104 105 109 111 117 118
b 58 1 2 12 21 27 30 31 32 35 37 39 48 49 52 59 60 84 89 90 92 93 103 104 105 109 111 117 118
b 59 1 2 12 21 26 27 30 31 35 37 39 48 52 59 60 89 90 93 103 105 109 111
b 60 26 52 74 89
b 61 1 2 12 21 26 27 30 31 37 39 48 59 60 80 89 90 93 103 105 109 111
b 62 2 27 46 49 52 103 111
b 63 40 46 49 52 111
b 64 1 2 12 21 27 32 35 48 49 52 59 60 84 89 90 91 92 103 104 105 111 117 118
b 65 2 12 21 27 32 35 49 59 60 89 91 92 95 103 104 111 117 118
b 66 52 91 104 108 118
b 67 1 13 16 22 31 34 39 48 63 75 84 92 93 102 103 109 118
b 68 1 2 13 16 27 30 43 60 63 84 89 109
b 69 2 11 13 16 21 27 29 30 32 39 62 89 93 97 102 111
b 70 1 2 5 6 11 12 13 16 19 22 27 29 30 31 32 34 35 37 39 49 60 62 77 84 90 92 101 102 103 104 105 109 111 112 117
b 71 1 2 5 6 11 12 13 16 19 22 27 29 30 31 32 34 35 60 62 77 84 87 90 92 101 102 103 104 105 109 111 112 117
b 72 1 2 5 6 12 13 16 19 22 29 31 32 34 35 60 62 66 77 87 90 101 103 105 109 111 117
b 73 1 2 5 6 12 13 16 18 19 22 31 32 35 66 90 101 109 111 117
b 74 1 5 11 13 19 29 30 32 35 62 77 84 87 92 100 101 102 103 109 112
b 75 1 5 6 12 13 16 29 34 39 49 72 84 102 112 117
b 76 2 21 27 35 36 37 111 117
b 77 21 27 36 37 111 114
b 78 27 51 111 114
b 79 21 36 37 78 114
b 80 67 89 92 110
b 81 63 89 92 110
b 82 2 46 68 103
b 83 40 46 79 111
1 60
2 45
3 31
4 20
5 40
6 34
7 83
8 29
9 44
10 66
11 38
12 41
13 39
14 50
15 50
16 76
17 50
18 37
19 20
20 50
21 32
22 78
23 43
24 25
25 50
26 64
27 30
28 35
29 52
30 80
31 41
32 82
33 36
34 43
35 36
36 50
37 66
38 42
39 49
40 47
41 64
42 69
43 50
44 62
45 78
46 63
47 59
48 66
49 76
50 51
50 70
50 76
51 52
51 69
52 53
53 81
53 54
53 68
54 55
54 56
56 57
56 67
57 58
58 59
58 62
58 64
59 60
59 61
62 82
62 63
63 83
64 65
64 66
70 71
70 75
71 72
71 74
72 73
76 77
77 78
77 79
80 81
